52
11
0 12 13 15 16 17 18 22 23 25 26 31 37 39 40 43 46 47 50 51
1 11 13 15 16 17 18 20 22 23 25 26 27 31 36 37 38 41 43 46 47
2 11 13 14 16 17 18 23 24 27 28 31 32 33 34 39 43 47 48
3 11 13 15 16 18 20 22 27 29 33 36 39 41 43 45 47 49
4 11 14 15 16 17 25 34 35 37 45 46 50 51
5 13 15 16 18 25 26 28 34 36 41 45 46
6 17 20 22 23 25 26 28 29 30 31 35 40 43 44 48 50 51
7 11 13 17 18 19 21 23 27 34 37 40 42 47
8 12 14 22 23 26 31 32 36 38 39 44 47 48 50
9 19 24 27 36 50
10 11 14 16 26 43 49
